data/lp_files/q3/83_8.lp
\ Model foo
\ LP format - for model browsing. Use MPS format to capture full model detail.
Minimize
  z
Subject To
 allocateEach[1]: x[1,1] + x[2,1] + x[3,1] + x[4,1] + x[5,1] = 1
 allocateEach[2]: x[1,2] + x[2,2] + x[3,2] + x[4,2] + x[5,2] = 1
 allocateEach[3]: x[1,3] + x[2,3] + x[3,3] + x[4,3] + x[5,3] = 1
 allocateAllCash: cashProportion[1] + cashProportion[2] + cashProportion[3]
   + cashProportion[4] + cashProportion[5] = 1
 findWorstP[1,2]: z + 0.3040784522406781 cashProportion[1]
   - 0.3040784522406781 cashProportion[2] + 0.2877342354327416 x[1,1]
   + 0.0876126040518454 x[1,2] + 0.3205747082747348 x[1,3]
   - 0.2877342354327416 x[2,1] - 0.0876126040518454 x[2,2]
   - 0.3205747082747348 x[2,3] >= 0
 findWorstP[1,3]: z + 0.3040784522406781 cashProportion[1]
   - 0.3040784522406781 cashProportion[3] + 0.2877342354327416 x[1,1]
   + 0.0876126040518454 x[1,2] + 0.3205747082747348 x[1,3]
   - 0.2877342354327416 x[3,1] - 0.0876126040518454 x[3,2]
   - 0.3205747082747348 x[3,3] >= 0
 findWorstP[1,4]: z + 0.3040784522406781 cashProportion[1]
   - 0.3040784522406781 cashProportion[4] + 0.2877342354327416 x[1,1]
   + 0.0876126040518454 x[1,2] + 0.3205747082747348 x[1,3]
   - 0.2877342354327416 x[4,1] - 0.0876126040518454 x[4,2]
   - 0.3205747082747348 x[4,3] >= 0
 findWorstP[1,5]: z + 0.3040784522406781 cashProportion[1]
   - 0.3040784522406781 cashProportion[5] + 0.2877342354327416 x[1,1]
   + 0.0876126040518454 x[1,2] + 0.3205747082747348 x[1,3]
   - 0.2877342354327416 x[5,1] - 0.0876126040518454 x[5,2]
   - 0.3205747082747348 x[5,3] >= 0
 findWorstP[2,1]: z - 0.3901677721420211 cashProportion[1]
   + 0.3901677721420211 cashProportion[2] - 0.0880316035895435 x[1,1]
   - 0.1778677331252438 x[1,2] - 0.3439328911431915 x[1,3]
   + 0.0880316035895435 x[2,1] + 0.1778677331252438 x[2,2]
   + 0.3439328911431915 x[2,3] >= 0
 findWorstP[2,3]: z + 0.3901677721420211 cashProportion[2]
   - 0.3901677721420211 cashProportion[3] + 0.0880316035895435 x[2,1]
   + 0.1778677331252438 x[2,2] + 0.3439328911431915 x[2,3]
   - 0.0880316035895435 x[3,1] - 0.1778677331252438 x[3,2]
   - 0.3439328911431915 x[3,3] >= 0
 findWorstP[2,4]: z + 0.3901677721420211 cashProportion[2]
   - 0.3901677721420211 cashProportion[4] + 0.0880316035895435 x[2,1]
   + 0.1778677331252438 x[2,2] + 0.3439328911431915 x[2,3]
   - 0.0880316035895435 x[4,1] - 0.1778677331252438 x[4,2]
   - 0.3439328911431915 x[4,3] >= 0
 findWorstP[2,5]: z + 0.3901677721420211 cashProportion[2]
   - 0.3901677721420211 cashProportion[5] + 0.0880316035895435 x[2,1]
   + 0.1778677331252438 x[2,2] + 0.3439328911431915 x[2,3]
   - 0.0880316035895435 x[5,1] - 0.1778677331252438 x[5,2]
   - 0.3439328911431915 x[5,3] >= 0
 findWorstP[3,1]: z - 0.2639392939623887 cashProportion[1]
   + 0.2639392939623887 cashProportion[3] - 0.2333223358627516 x[1,1]
   - 0.1815572418343781 x[1,2] - 0.3211811283404817 x[1,3]
   + 0.2333223358627516 x[3,1] + 0.1815572418343781 x[3,2]
   + 0.3211811283404817 x[3,3] >= 0
 findWorstP[3,2]: z - 0.2639392939623887 cashProportion[2]
   + 0.2639392939623887 cashProportion[3] - 0.2333223358627516 x[2,1]
   - 0.1815572418343781 x[2,2] - 0.3211811283404817 x[2,3]
   + 0.2333223358627516 x[3,1] + 0.1815572418343781 x[3,2]
   + 0.3211811283404817 x[3,3] >= 0
 findWorstP[3,4]: z + 0.2639392939623887 cashProportion[3]
   - 0.2639392939623887 cashProportion[4] + 0.2333223358627516 x[3,1]
   + 0.1815572418343781 x[3,2] + 0.3211811283404817 x[3,3]
   - 0.2333223358627516 x[4,1] - 0.1815572418343781 x[4,2]
   - 0.3211811283404817 x[4,3] >= 0
 findWorstP[3,5]: z + 0.2639392939623887 cashProportion[3]
   - 0.2639392939623887 cashProportion[5] + 0.2333223358627516 x[3,1]
   + 0.1815572418343781 x[3,2] + 0.3211811283404817 x[3,3]
   - 0.2333223358627516 x[5,1] - 0.1815572418343781 x[5,2]
   - 0.3211811283404817 x[5,3] >= 0
 findWorstP[4,1]: z - 0.5126890540886953 cashProportion[1]
   + 0.5126890540886953 cashProportion[4] - 0.2759548833632401 x[1,1]
   - 0.1138169700076903 x[1,2] - 0.0975390925403743 x[1,3]
   + 0.2759548833632401 x[4,1] + 0.1138169700076903 x[4,2]
   + 0.0975390925403743 x[4,3] >= 0
 findWorstP[4,2]: z - 0.5126890540886953 cashProportion[2]
   + 0.5126890540886953 cashProportion[4] - 0.2759548833632401 x[2,1]
   - 0.1138169700076903 x[2,2] - 0.0975390925403743 x[2,3]
   + 0.2759548833632401 x[4,1] + 0.1138169700076903 x[4,2]
   + 0.0975390925403743 x[4,3] >= 0
 findWorstP[4,3]: z - 0.5126890540886953 cashProportion[3]
   + 0.5126890540886953 cashProportion[4] - 0.2759548833632401 x[3,1]
   - 0.1138169700076903 x[3,2] - 0.0975390925403743 x[3,3]
   + 0.2759548833632401 x[4,1] + 0.1138169700076903 x[4,2]
   + 0.0975390925403743 x[4,3] >= 0
 findWorstP[4,5]: z + 0.5126890540886953 cashProportion[4]
   - 0.5126890540886953 cashProportion[5] + 0.2759548833632401 x[4,1]
   + 0.1138169700076903 x[4,2] + 0.0975390925403743 x[4,3]
   - 0.2759548833632401 x[5,1] - 0.1138169700076903 x[5,2]
   - 0.0975390925403743 x[5,3] >= 0
 findWorstP[5,1]: z - 0.2761286759629988 cashProportion[1]
   + 0.2761286759629988 cashProportion[5] - 0.1832458925859451 x[1,1]
   - 0.2950089741819688 x[1,2] - 0.2456164572690874 x[1,3]
   + 0.1832458925859451 x[5,1] + 0.2950089741819688 x[5,2]
   + 0.2456164572690874 x[5,3] >= 0
 findWorstP[5,2]: z - 0.2761286759629988 cashProportion[2]
   + 0.2761286759629988 cashProportion[5] - 0.1832458925859451 x[2,1]
   - 0.2950089741819688 x[2,2] - 0.2456164572690874 x[2,3]
   + 0.1832458925859451 x[5,1] + 0.2950089741819688 x[5,2]
   + 0.2456164572690874 x[5,3] >= 0
 findWorstP[5,3]: z - 0.2761286759629988 cashProportion[3]
   + 0.2761286759629988 cashProportion[5] - 0.1832458925859451 x[3,1]
   - 0.2950089741819688 x[3,2] - 0.2456164572690874 x[3,3]
   + 0.1832458925859451 x[5,1] + 0.2950089741819688 x[5,2]
   + 0.2456164572690874 x[5,3] >= 0
 findWorstP[5,4]: z - 0.2761286759629988 cashProportion[4]
   + 0.2761286759629988 cashProportion[5] - 0.1832458925859451 x[4,1]
   - 0.2950089741819688 x[4,2] - 0.2456164572690874 x[4,3]
   + 0.1832458925859451 x[5,1] + 0.2950089741819688 x[5,2]
   + 0.2456164572690874 x[5,3] >= 0
Bounds
 z <= 1
 -infinity <= cashProportion[1] <= 1
 -infinity <= cashProportion[2] <= 1
 -infinity <= cashProportion[3] <= 1
 -infinity <= cashProportion[4] <= 1
 -infinity <= cashProportion[5] <= 1
Binaries
 x[1,1] x[1,2] x[1,3] x[2,1] x[2,2] x[2,3] x[3,1] x[3,2] x[3,3] x[4,1]
 x[4,2] x[4,3] x[5,1] x[5,2] x[5,3]
End
