data/mps_files/q3/83_8.mps
NAME foo
ROWS
 N  OBJ
 E  allocateEach[1]
 E  allocateEach[2]
 E  allocateEach[3]
 E  allocateAllCash
 G  findWorstP[1,2]
 G  findWorstP[1,3]
 G  findWorstP[1,4]
 G  findWorstP[1,5]
 G  findWorstP[2,1]
 G  findWorstP[2,3]
 G  findWorstP[2,4]
 G  findWorstP[2,5]
 G  findWorstP[3,1]
 G  findWorstP[3,2]
 G  findWorstP[3,4]
 G  findWorstP[3,5]
 G  findWorstP[4,1]
 G  findWorstP[4,2]
 G  findWorstP[4,3]
 G  findWorstP[4,5]
 G  findWorstP[5,1]
 G  findWorstP[5,2]
 G  findWorstP[5,3]
 G  findWorstP[5,4]
COLUMNS
    z         OBJ       1
    z         findWorstP[1,2]  1
    z         findWorstP[1,3]  1
    z         findWorstP[1,4]  1
    z         findWorstP[1,5]  1
    z         findWorstP[2,1]  1
    z         findWorstP[2,3]  1
    z         findWorstP[2,4]  1
    z         findWorstP[2,5]  1
    z         findWorstP[3,1]  1
    z         findWorstP[3,2]  1
    z         findWorstP[3,4]  1
    z         findWorstP[3,5]  1
    z         findWorstP[4,1]  1
    z         findWorstP[4,2]  1
    z         findWorstP[4,3]  1
    z         findWorstP[4,5]  1
    z         findWorstP[5,1]  1
    z         findWorstP[5,2]  1
    z         findWorstP[5,3]  1
    z         findWorstP[5,4]  1
    cashProportion[1]  allocateAllCash  1
    cashProportion[1]  findWorstP[1,2]  3.0407845224067809e-01
    cashProportion[1]  findWorstP[1,3]  3.0407845224067809e-01
    cashProportion[1]  findWorstP[1,4]  3.0407845224067809e-01
    cashProportion[1]  findWorstP[1,5]  3.0407845224067809e-01
    cashProportion[1]  findWorstP[2,1]  -3.9016777214202109e-01
    cashProportion[1]  findWorstP[3,1]  -2.6393929396238869e-01
    cashProportion[1]  findWorstP[4,1]  -5.1268905408869525e-01
    cashProportion[1]  findWorstP[5,1]  -2.7612867596299878e-01
    cashProportion[2]  allocateAllCash  1
    cashProportion[2]  findWorstP[1,2]  -3.0407845224067809e-01
    cashProportion[2]  findWorstP[2,1]  3.9016777214202109e-01
    cashProportion[2]  findWorstP[2,3]  3.9016777214202109e-01
    cashProportion[2]  findWorstP[2,4]  3.9016777214202109e-01
    cashProportion[2]  findWorstP[2,5]  3.9016777214202109e-01
    cashProportion[2]  findWorstP[3,2]  -2.6393929396238869e-01
    cashProportion[2]  findWorstP[4,2]  -5.1268905408869525e-01
    cashProportion[2]  findWorstP[5,2]  -2.7612867596299878e-01
    cashProportion[3]  allocateAllCash  1
    cashProportion[3]  findWorstP[1,3]  -3.0407845224067809e-01
    cashProportion[3]  findWorstP[2,3]  -3.9016777214202109e-01
    cashProportion[3]  findWorstP[3,1]  2.6393929396238869e-01
    cashProportion[3]  findWorstP[3,2]  2.6393929396238869e-01
    cashProportion[3]  findWorstP[3,4]  2.6393929396238869e-01
    cashProportion[3]  findWorstP[3,5]  2.6393929396238869e-01
    cashProportion[3]  findWorstP[4,3]  -5.1268905408869525e-01
    cashProportion[3]  findWorstP[5,3]  -2.7612867596299878e-01
    cashProportion[4]  allocateAllCash  1
    cashProportion[4]  findWorstP[1,4]  -3.0407845224067809e-01
    cashProportion[4]  findWorstP[2,4]  -3.9016777214202109e-01
    cashProportion[4]  findWorstP[3,4]  -2.6393929396238869e-01
    cashProportion[4]  findWorstP[4,1]  5.1268905408869525e-01
    cashProportion[4]  findWorstP[4,2]  5.1268905408869525e-01
    cashProportion[4]  findWorstP[4,3]  5.1268905408869525e-01
    cashProportion[4]  findWorstP[4,5]  5.1268905408869525e-01
    cashProportion[4]  findWorstP[5,4]  -2.7612867596299878e-01
    cashProportion[5]  allocateAllCash  1
    cashProportion[5]  findWorstP[1,5]  -3.0407845224067809e-01
    cashProportion[5]  findWorstP[2,5]  -3.9016777214202109e-01
    cashProportion[5]  findWorstP[3,5]  -2.6393929396238869e-01
    cashProportion[5]  findWorstP[4,5]  -5.1268905408869525e-01
    cashProportion[5]  findWorstP[5,1]  2.7612867596299878e-01
    cashProportion[5]  findWorstP[5,2]  2.7612867596299878e-01
    cashProportion[5]  findWorstP[5,3]  2.7612867596299878e-01
    cashProportion[5]  findWorstP[5,4]  2.7612867596299878e-01
    MARKER    'MARKER'                 'INTORG'
    x[1,1]    allocateEach[1]  1
    x[1,1]    findWorstP[1,2]  2.8773423543274163e-01
    x[1,1]    findWorstP[1,3]  2.8773423543274163e-01
    x[1,1]    findWorstP[1,4]  2.8773423543274163e-01
    x[1,1]    findWorstP[1,5]  2.8773423543274163e-01
    x[1,1]    findWorstP[2,1]  -8.8031603589543483e-02
    x[1,1]    findWorstP[3,1]  -2.3332233586275156e-01
    x[1,1]    findWorstP[4,1]  -2.7595488336324014e-01
    x[1,1]    findWorstP[5,1]  -1.8324589258594506e-01
    x[1,2]    allocateEach[2]  1
    x[1,2]    findWorstP[1,2]  8.7612604051845372e-02
    x[1,2]    findWorstP[1,3]  8.7612604051845372e-02
    x[1,2]    findWorstP[1,4]  8.7612604051845372e-02
    x[1,2]    findWorstP[1,5]  8.7612604051845372e-02
    x[1,2]    findWorstP[2,1]  -1.7786773312524384e-01
    x[1,2]    findWorstP[3,1]  -1.8155724183437807e-01
    x[1,2]    findWorstP[4,1]  -1.1381697000769034e-01
    x[1,2]    findWorstP[5,1]  -2.9500897418196881e-01
    x[1,3]    allocateEach[3]  1
    x[1,3]    findWorstP[1,2]  3.2057470827473483e-01
    x[1,3]    findWorstP[1,3]  3.2057470827473483e-01
    x[1,3]    findWorstP[1,4]  3.2057470827473483e-01
    x[1,3]    findWorstP[1,5]  3.2057470827473483e-01
    x[1,3]    findWorstP[2,1]  -3.4393289114319153e-01
    x[1,3]    findWorstP[3,1]  -3.2118112834048168e-01
    x[1,3]    findWorstP[4,1]  -9.7539092540374253e-02
    x[1,3]    findWorstP[5,1]  -2.4561645726908740e-01
    x[2,1]    allocateEach[1]  1
    x[2,1]    findWorstP[1,2]  -2.8773423543274163e-01
    x[2,1]    findWorstP[2,1]  8.8031603589543483e-02
    x[2,1]    findWorstP[2,3]  8.8031603589543483e-02
    x[2,1]    findWorstP[2,4]  8.8031603589543483e-02
    x[2,1]    findWorstP[2,5]  8.8031603589543483e-02
    x[2,1]    findWorstP[3,2]  -2.3332233586275156e-01
    x[2,1]    findWorstP[4,2]  -2.7595488336324014e-01
    x[2,1]    findWorstP[5,2]  -1.8324589258594506e-01
    x[2,2]    allocateEach[2]  1
    x[2,2]    findWorstP[1,2]  -8.7612604051845372e-02
    x[2,2]    findWorstP[2,1]  1.7786773312524384e-01
    x[2,2]    findWorstP[2,3]  1.7786773312524384e-01
    x[2,2]    findWorstP[2,4]  1.7786773312524384e-01
    x[2,2]    findWorstP[2,5]  1.7786773312524384e-01
    x[2,2]    findWorstP[3,2]  -1.8155724183437807e-01
    x[2,2]    findWorstP[4,2]  -1.1381697000769034e-01
    x[2,2]    findWorstP[5,2]  -2.9500897418196881e-01
    x[2,3]    allocateEach[3]  1
    x[2,3]    findWorstP[1,2]  -3.2057470827473483e-01
    x[2,3]    findWorstP[2,1]  3.4393289114319153e-01
    x[2,3]    findWorstP[2,3]  3.4393289114319153e-01
    x[2,3]    findWorstP[2,4]  3.4393289114319153e-01
    x[2,3]    findWorstP[2,5]  3.4393289114319153e-01
    x[2,3]    findWorstP[3,2]  -3.2118112834048168e-01
    x[2,3]    findWorstP[4,2]  -9.7539092540374253e-02
    x[2,3]    findWorstP[5,2]  -2.4561645726908740e-01
    x[3,1]    allocateEach[1]  1
    x[3,1]    findWorstP[1,3]  -2.8773423543274163e-01
    x[3,1]    findWorstP[2,3]  -8.8031603589543483e-02
    x[3,1]    findWorstP[3,1]  2.3332233586275156e-01
    x[3,1]    findWorstP[3,2]  2.3332233586275156e-01
    x[3,1]    findWorstP[3,4]  2.3332233586275156e-01
    x[3,1]    findWorstP[3,5]  2.3332233586275156e-01
    x[3,1]    findWorstP[4,3]  -2.7595488336324014e-01
    x[3,1]    findWorstP[5,3]  -1.8324589258594506e-01
    x[3,2]    allocateEach[2]  1
    x[3,2]    findWorstP[1,3]  -8.7612604051845372e-02
    x[3,2]    findWorstP[2,3]  -1.7786773312524384e-01
    x[3,2]    findWorstP[3,1]  1.8155724183437807e-01
    x[3,2]    findWorstP[3,2]  1.8155724183437807e-01
    x[3,2]    findWorstP[3,4]  1.8155724183437807e-01
    x[3,2]    findWorstP[3,5]  1.8155724183437807e-01
    x[3,2]    findWorstP[4,3]  -1.1381697000769034e-01
    x[3,2]    findWorstP[5,3]  -2.9500897418196881e-01
    x[3,3]    allocateEach[3]  1
    x[3,3]    findWorstP[1,3]  -3.2057470827473483e-01
    x[3,3]    findWorstP[2,3]  -3.4393289114319153e-01
    x[3,3]    findWorstP[3,1]  3.2118112834048168e-01
    x[3,3]    findWorstP[3,2]  3.2118112834048168e-01
    x[3,3]    findWorstP[3,4]  3.2118112834048168e-01
    x[3,3]    findWorstP[3,5]  3.2118112834048168e-01
    x[3,3]    findWorstP[4,3]  -9.7539092540374253e-02
    x[3,3]    findWorstP[5,3]  -2.4561645726908740e-01
    x[4,1]    allocateEach[1]  1
    x[4,1]    findWorstP[1,4]  -2.8773423543274163e-01
    x[4,1]    findWorstP[2,4]  -8.8031603589543483e-02
    x[4,1]    findWorstP[3,4]  -2.3332233586275156e-01
    x[4,1]    findWorstP[4,1]  2.7595488336324014e-01
    x[4,1]    findWorstP[4,2]  2.7595488336324014e-01
    x[4,1]    findWorstP[4,3]  2.7595488336324014e-01
    x[4,1]    findWorstP[4,5]  2.7595488336324014e-01
    x[4,1]    findWorstP[5,4]  -1.8324589258594506e-01
    x[4,2]    allocateEach[2]  1
    x[4,2]    findWorstP[1,4]  -8.7612604051845372e-02
    x[4,2]    findWorstP[2,4]  -1.7786773312524384e-01
    x[4,2]    findWorstP[3,4]  -1.8155724183437807e-01
    x[4,2]    findWorstP[4,1]  1.1381697000769034e-01
    x[4,2]    findWorstP[4,2]  1.1381697000769034e-01
    x[4,2]    findWorstP[4,3]  1.1381697000769034e-01
    x[4,2]    findWorstP[4,5]  1.1381697000769034e-01
    x[4,2]    findWorstP[5,4]  -2.9500897418196881e-01
    x[4,3]    allocateEach[3]  1
    x[4,3]    findWorstP[1,4]  -3.2057470827473483e-01
    x[4,3]    findWorstP[2,4]  -3.4393289114319153e-01
    x[4,3]    findWorstP[3,4]  -3.2118112834048168e-01
    x[4,3]    findWorstP[4,1]  9.7539092540374253e-02
    x[4,3]    findWorstP[4,2]  9.7539092540374253e-02
    x[4,3]    findWorstP[4,3]  9.7539092540374253e-02
    x[4,3]    findWorstP[4,5]  9.7539092540374253e-02
    x[4,3]    findWorstP[5,4]  -2.4561645726908740e-01
    x[5,1]    allocateEach[1]  1
    x[5,1]    findWorstP[1,5]  -2.8773423543274163e-01
    x[5,1]    findWorstP[2,5]  -8.8031603589543483e-02
    x[5,1]    findWorstP[3,5]  -2.3332233586275156e-01
    x[5,1]    findWorstP[4,5]  -2.7595488336324014e-01
    x[5,1]    findWorstP[5,1]  1.8324589258594506e-01
    x[5,1]    findWorstP[5,2]  1.8324589258594506e-01
    x[5,1]    findWorstP[5,3]  1.8324589258594506e-01
    x[5,1]    findWorstP[5,4]  1.8324589258594506e-01
    x[5,2]    allocateEach[2]  1
    x[5,2]    findWorstP[1,5]  -8.7612604051845372e-02
    x[5,2]    findWorstP[2,5]  -1.7786773312524384e-01
    x[5,2]    findWorstP[3,5]  -1.8155724183437807e-01
    x[5,2]    findWorstP[4,5]  -1.1381697000769034e-01
    x[5,2]    findWorstP[5,1]  2.9500897418196881e-01
    x[5,2]    findWorstP[5,2]  2.9500897418196881e-01
    x[5,2]    findWorstP[5,3]  2.9500897418196881e-01
    x[5,2]    findWorstP[5,4]  2.9500897418196881e-01
    x[5,3]    allocateEach[3]  1
    x[5,3]    findWorstP[1,5]  -3.2057470827473483e-01
    x[5,3]    findWorstP[2,5]  -3.4393289114319153e-01
    x[5,3]    findWorstP[3,5]  -3.2118112834048168e-01
    x[5,3]    findWorstP[4,5]  -9.7539092540374253e-02
    x[5,3]    findWorstP[5,1]  2.4561645726908740e-01
    x[5,3]    findWorstP[5,2]  2.4561645726908740e-01
    x[5,3]    findWorstP[5,3]  2.4561645726908740e-01
    x[5,3]    findWorstP[5,4]  2.4561645726908740e-01
    MARKER    'MARKER'                 'INTEND'
RHS
    RHS1      allocateEach[1]  1
    RHS1      allocateEach[2]  1
    RHS1      allocateEach[3]  1
    RHS1      allocateAllCash  1
BOUNDS
 UP BND1      z         1
 MI BND1      cashProportion[1]
 UP BND1      cashProportion[1]  1
 MI BND1      cashProportion[2]
 UP BND1      cashProportion[2]  1
 MI BND1      cashProportion[3]
 UP BND1      cashProportion[3]  1
 MI BND1      cashProportion[4]
 UP BND1      cashProportion[4]  1
 MI BND1      cashProportion[5]
 UP BND1      cashProportion[5]  1
 BV BND1      x[1,1]  
 BV BND1      x[1,2]  
 BV BND1      x[1,3]  
 BV BND1      x[2,1]  
 BV BND1      x[2,2]  
 BV BND1      x[2,3]  
 BV BND1      x[3,1]  
 BV BND1      x[3,2]  
 BV BND1      x[3,3]  
 BV BND1      x[4,1]  
 BV BND1      x[4,2]  
 BV BND1      x[4,3]  
 BV BND1      x[5,1]  
 BV BND1      x[5,2]  
 BV BND1      x[5,3]  
ENDATA
